#######################################################
#CASTEP cell file: ./_CASTEP/castep.cell
#Created using the Atomic Simulation Environment (ASE)#
#######################################################

%BLOCK LATTICE_CART
 2.858786  0.028588  0.000000
-1.404635  2.461488  0.000000
 0.000000  0.000000  4.618709
%ENDBLOCK LATTICE_CART

%BLOCK POSITIONS_ABS
Ti  0.000000  0.000000  0.000000
Ti  0.016504  1.650522  2.309355
%ENDBLOCK POSITIONS_ABS

%BLOCK SPECIES_POT
Ti 3|1.8|9|10|11|30U:40:31:32(qc=5.5)
%ENDBLOCK SPECIES_POT

KPOINTS_MP_SPACING: 0.02 
