#######################################################
#CASTEP cell file: /fs3/e89/e89/casv2/ship-testing-framework/example_run_dir/TiAl/run_dir/run_TiAl-model-CASTEP-test-phonon_Ti3Al/_CASTEP/castep.cell
#Created using the Atomic Simulation Environment (ASE)#
#######################################################

%BLOCK LATTICE_CART
11.221007  0.000358 -0.000000
-5.610194  9.717846 -0.000000
-0.000000 -0.000000  9.089698
%ENDBLOCK LATTICE_CART

%BLOCK POSITIONS_ABS
Ti  2.805124  3.210692  1.136226
Ti  8.415628  3.210871  1.136226
Ti  0.000028  8.069615  1.136226
Ti  5.610531  8.069794  1.136226
Ti  2.805124  3.210692  5.681074
Ti  8.415628  3.210871  5.681074
Ti  0.000027  8.069615  5.681074
Ti  5.610531  8.069794  5.681074
Ti -1.377603  4.034754  3.408650
Ti  4.232900  4.034933  3.408650
Ti -4.182700  8.893677  3.408650
Ti  1.427804  8.893856  3.408650
Ti -1.377604  4.034754  7.953499
Ti  4.232900  4.034933  7.953499
Ti -4.182700  8.893677  7.953499
Ti  1.427803  8.893856  7.953499
Ti  1.377967  4.034608  3.408650
Ti  6.988471  4.034787  3.408650
Ti -1.427129  8.893531  3.408650
Ti  4.183374  8.893710  3.408650
Ti  1.377967  4.034608  7.953499
Ti  6.988471  4.034787  7.953499
Ti -1.427129  8.893531  7.953499
Ti  4.183374  8.893710  7.953499
Ti  1.427431  0.824499  1.136226
Ti  7.037935  0.824678  1.136226
Ti -1.377666  5.683422  1.136226
Ti  4.232838  5.683601  1.136226
Ti  1.427431  0.824498  5.681075
Ti  7.037935  0.824677  5.681074
Ti -1.377666  5.683421  5.681075
Ti  4.232838  5.683601  5.681074
Ti  4.183021  0.824368  1.136226
Ti  9.793525  0.824547  1.136226
Ti  1.377925  5.683291  1.136226
Ti  6.988428  5.683470  1.136226
Ti  4.183021  0.824368  5.681075
Ti  9.793525  0.824547  5.681074
Ti  1.377925  5.683291  5.681074
Ti  6.988428  5.683470  5.681074
Ti  0.000299  1.648459  3.408650
Ti  5.610803  1.648638  3.408650
Ti -2.804797  6.507382  3.408650
Ti  2.805706  6.507561  3.408650
Ti  0.000299  1.648459  7.953499
Ti  5.610803  1.648638  7.953499
Ti -2.804797  6.507382  7.953499
Ti  2.805706  6.507561  7.953499
Al  0.000420  3.239168  1.136226
Al  5.610924  3.239347  1.136226
Al -2.804676  8.098091  1.136226
Al  2.805827  8.098271  1.136226
Al  0.000420  3.239168  5.681075
Al  5.610924  3.239347  5.681074
Al -2.804676  8.098091  5.681075
Al  2.805827  8.098270  5.681074
Al  2.809967  1.611297  3.408650
Al  8.415471  1.620137  3.408650
Al -0.000130  6.478881  3.408650
Al  5.610374  6.479060  3.408650
Al  2.804967  1.619958  7.953499
Al  8.415470  1.620137  7.953499
Al -0.000130  6.478881  7.953499
Al  5.610374  6.479060  7.953499
%ENDBLOCK POSITIONS_ABS

%BLOCK SPECIES_POT
Al 3|2.2|2.2|1.4|4|5|5|30:31:32U2U2
Ti 3|1.8|9|10|11|30U:40:31:32(qc=5.5)
%ENDBLOCK SPECIES_POT

KPOINTS_MP_SPACING: 0.04 
