#######################################################
#CASTEP cell file: /fs3/e89/e89/casv2/ship-testing-framework/example_run_dir/TiAl/run_dir/run_TiAl-model-CASTEP-test-phonon_Ti3Al/_CASTEP/castep.cell
#Created using the Atomic Simulation Environment (ASE)#
#######################################################

%BLOCK LATTICE_CART
11.501696  0.000000  0.000000
-5.750848  9.960761  0.000000
 0.000000  0.000000  9.310564
%ENDBLOCK LATTICE_CART

%BLOCK POSITIONS_ABS
Ti  2.867651  3.289970  1.157529
Ti  8.626272  3.289970  1.163821
Ti  0.000000  8.270350  1.163821
Ti  5.750848  8.270350  1.163821
Ti  2.875424  3.289970  5.819103
Ti  8.626272  3.289970  5.819103
Ti  0.000000  8.270350  5.819103
Ti  5.750848  8.270350  5.819103
Ti -1.411485  4.135175  3.491462
Ti  4.339363  4.135175  3.491462
Ti -4.286909  9.115555  3.491462
Ti  1.463939  9.115555  3.491462
Ti -1.411485  4.135175  8.146744
Ti  4.339363  4.135175  8.146744
Ti -4.286909  9.115555  8.146744
Ti  1.463939  9.115555  8.146744
Ti  1.411485  4.135175  3.491462
Ti  7.162333  4.135175  3.491462
Ti -1.463939  9.115555  3.491462
Ti  4.286909  9.115555  3.491462
Ti  1.411485  4.135175  8.146744
Ti  7.162333  4.135175  8.146744
Ti -1.463939  9.115555  8.146744
Ti  4.286909  9.115555  8.146744
Ti  1.463939  0.845205  1.163821
Ti  7.214787  0.845205  1.163821
Ti -1.411485  5.825586  1.163821
Ti  4.339363  5.825586  1.163821
Ti  1.463939  0.845205  5.819103
Ti  7.214787  0.845205  5.819103
Ti -1.411485  5.825586  5.819103
Ti  4.339363  5.825586  5.819103
Ti  4.286909  0.845205  1.163821
Ti 10.037757  0.845205  1.163821
Ti  1.411485  5.825586  1.163821
Ti  7.162333  5.825586  1.163821
Ti  4.286909  0.845205  5.819103
Ti 10.037757  0.845205  5.819103
Ti  1.411485  5.825586  5.819103
Ti  7.162333  5.825586  5.819103
Ti -0.000000  1.690411  3.491462
Ti  5.750848  1.690411  3.491462
Ti -2.875424  6.670791  3.491462
Ti  2.875424  6.670791  3.491462
Ti -0.000000  1.690411  8.146744
Ti  5.750848  1.690411  8.146744
Ti -2.875424  6.670791  8.146744
Ti  2.875424  6.670791  8.146744
Al -0.000003  3.320255  1.163821
Al  5.750845  3.320255  1.163821
Al -2.875427  8.300636  1.163821
Al  2.875421  8.300636  1.163821
Al -0.000003  3.320255  5.819103
Al  5.750845  3.320255  5.819103
Al -2.875427  8.300636  5.819103
Al  2.875421  8.300636  5.819103
Al  2.875427  1.660125  3.491462
Al  8.626275  1.660125  3.491462
Al  0.000003  6.640505  3.491462
Al  5.750851  6.640505  3.491462
Al  2.875427  1.660125  8.146744
Al  8.626275  1.660125  8.146744
Al  0.000003  6.640505  8.146744
Al  5.750851  6.640505  8.146744
%ENDBLOCK POSITIONS_ABS

%BLOCK SPECIES_POT
Al 3|2.2|2.2|1.4|4|5|5|30:31:32U2U2
Ti 3|1.8|9|10|11|30U:40:31:32(qc=5.5)
%ENDBLOCK SPECIES_POT

KPOINTS_MP_SPACING: 0.04 
