#######################################################
#CASTEP cell file: /fs3/e89/e89/casv2/ship-testing-framework/example_run_dir/TiAl/run_dir/run_TiAl-model-CASTEP-test-phonon_Ti_hcp/_CASTEP/castep.cell
#Created using the Atomic Simulation Environment (ASE)#
#######################################################

%BLOCK LATTICE_CART
 8.576359 -0.000000  0.000000
-4.288179  7.427344  0.000000
 0.000000  0.000000 13.584438
%ENDBLOCK LATTICE_CART

%BLOCK POSITIONS_ABS
Ti  0.005338 -0.000000  0.008456
Ti  2.858786 -0.000000  0.000000
Ti  5.717572 -0.000000  0.000000
Ti -1.429393  2.475781  0.000000
Ti  1.429393  2.475781  0.000000
Ti  4.288179  2.475781  0.000000
Ti -2.858786  4.951563  0.000000
Ti  0.000000  4.951563  0.000000
Ti  2.858786  4.951563  0.000000
Ti  0.000000  0.000000  4.528146
Ti  2.858786 -0.000000  4.528146
Ti  5.717572 -0.000000  4.528146
Ti -1.429393  2.475781  4.528146
Ti  1.429393  2.475781  4.528146
Ti  4.288179  2.475781  4.528146
Ti -2.858786  4.951563  4.528146
Ti  0.000000  4.951563  4.528146
Ti  2.858786  4.951563  4.528146
Ti  0.000000  0.000000  9.056292
Ti  2.858786 -0.000000  9.056292
Ti  5.717572 -0.000000  9.056292
Ti -1.429393  2.475781  9.056292
Ti  1.429393  2.475781  9.056292
Ti  4.288179  2.475781  9.056292
Ti -2.858786  4.951563  9.056292
Ti  0.000000  4.951563  9.056292
Ti  2.858786  4.951563  9.056292
Ti -0.000001  1.650522  2.264073
Ti  2.858785  1.650522  2.264073
Ti  5.717571  1.650522  2.264073
Ti -1.429395  4.126303  2.264073
Ti  1.429392  4.126303  2.264073
Ti  4.288178  4.126303  2.264073
Ti -2.858788  6.602085  2.264073
Ti -0.000001  6.602085  2.264073
Ti  2.858785  6.602085  2.264073
Ti -0.000001  1.650522  6.792219
Ti  2.858785  1.650522  6.792219
Ti  5.717571  1.650522  6.792219
Ti -1.429395  4.126303  6.792219
Ti  1.429392  4.126303  6.792219
Ti  4.288178  4.126303  6.792219
Ti -2.858788  6.602085  6.792219
Ti -0.000001  6.602085  6.792219
Ti  2.858785  6.602085  6.792219
Ti -0.000001  1.650522 11.320365
Ti  2.858785  1.650522 11.320365
Ti  5.717571  1.650522 11.320365
Ti -1.429395  4.126303 11.320365
Ti  1.429392  4.126303 11.320365
Ti  4.288178  4.126303 11.320365
Ti -2.858788  6.602085 11.320365
Ti -0.000001  6.602085 11.320365
Ti  2.858785  6.602085 11.320365
%ENDBLOCK POSITIONS_ABS

KPOINTS_MP_SPACING: 0.04 
