#######################################################
#CASTEP cell file: /fs3/e89/e89/casv2/ship-testing-framework/example_run_dir/TiAl/run_dir/run_TiAl-model-CASTEP-test-phonon_Ti_bcc/_CASTEP/castep.cell
#Created using the Atomic Simulation Environment (ASE)#
#######################################################

%BLOCK LATTICE_CART
 9.497192  0.000000  0.000000
 0.000000  9.497192  0.000000
 0.000000  0.000000  9.497192
%ENDBLOCK LATTICE_CART

%BLOCK POSITIONS_ABS
Ti  0.010000  0.000000  0.000000
Ti  3.165731  0.000000  0.000000
Ti  6.331462  0.000000  0.000000
Ti  0.000000  3.165731  0.000000
Ti  3.165731  3.165731  0.000000
Ti  6.331462  3.165731  0.000000
Ti  0.000000  6.331462  0.000000
Ti  3.165731  6.331462  0.000000
Ti  6.331462  6.331462  0.000000
Ti  0.000000  0.000000  3.165731
Ti  3.165731  0.000000  3.165731
Ti  6.331462  0.000000  3.165731
Ti  0.000000  3.165731  3.165731
Ti  3.165731  3.165731  3.165731
Ti  6.331462  3.165731  3.165731
Ti  0.000000  6.331462  3.165731
Ti  3.165731  6.331462  3.165731
Ti  6.331462  6.331462  3.165731
Ti  0.000000  0.000000  6.331462
Ti  3.165731  0.000000  6.331462
Ti  6.331462  0.000000  6.331462
Ti  0.000000  3.165731  6.331462
Ti  3.165731  3.165731  6.331462
Ti  6.331462  3.165731  6.331462
Ti  0.000000  6.331462  6.331462
Ti  3.165731  6.331462  6.331462
Ti  6.331462  6.331462  6.331462
Ti  1.582865  1.582865  1.582865
Ti  4.748596  1.582865  1.582865
Ti  7.914327  1.582865  1.582865
Ti  1.582865  4.748596  1.582865
Ti  4.748596  4.748596  1.582865
Ti  7.914327  4.748596  1.582865
Ti  1.582865  7.914327  1.582865
Ti  4.748596  7.914327  1.582865
Ti  7.914327  7.914327  1.582865
Ti  1.582865  1.582865  4.748596
Ti  4.748596  1.582865  4.748596
Ti  7.914327  1.582865  4.748596
Ti  1.582865  4.748596  4.748596
Ti  4.748596  4.748596  4.748596
Ti  7.914327  4.748596  4.748596
Ti  1.582865  7.914327  4.748596
Ti  4.748596  7.914327  4.748596
Ti  7.914327  7.914327  4.748596
Ti  1.582865  1.582865  7.914327
Ti  4.748596  1.582865  7.914327
Ti  7.914327  1.582865  7.914327
Ti  1.582865  4.748596  7.914327
Ti  4.748596  4.748596  7.914327
Ti  7.914327  4.748596  7.914327
Ti  1.582865  7.914327  7.914327
Ti  4.748596  7.914327  7.914327
Ti  7.914327  7.914327  7.914327
%ENDBLOCK POSITIONS_ABS

KPOINTS_MP_SPACING: 0.04 
