#######################################################
#CASTEP cell file: ./_CASTEP/castep.cell
#Created using the Atomic Simulation Environment (ASE)#
#######################################################

%BLOCK LATTICE_CART
 2.817932  0.000000  0.000000
 0.000000  2.762678  0.027627
 0.000000  0.039817  3.981744
%ENDBLOCK LATTICE_CART

%BLOCK POSITIONS_ABS
Ti  1.408966  1.401248  2.004686
Al  0.000000  0.000000  0.000000
%ENDBLOCK POSITIONS_ABS

%BLOCK SPECIES_POT
Al 3|2.2|2.2|1.4|4|5|5|30:31:32U2U2
Ti 3|1.8|9|10|11|30U:40:31:32(qc=5.5)
%ENDBLOCK SPECIES_POT

KPOINTS_MP_SPACING: 0.02 
