#######################################################
#CASTEP cell file: /fs3/e89/e89/casv2/ship-testing-framework/example_run_dir/TiAl/run_dir/run_TiAl-model-CASTEP-test-phonon_Al/_CASTEP/castep.cell
#Created using the Atomic Simulation Environment (ASE)#
#######################################################

%BLOCK LATTICE_CART
 8.000000  0.000000  0.000000
 0.000000  8.000000  0.000000
 0.000000  0.000000  8.000000
%ENDBLOCK LATTICE_CART

%BLOCK POSITIONS_ABS
Al  0.010000  0.000000  0.000000
Al  4.000000  0.000000  0.000000
Al  0.000000  4.000000  0.000000
Al  4.000000  4.000000  0.000000
Al  0.000000  0.000000  4.000000
Al  4.000000  0.000000  4.000000
Al  0.000000  4.000000  4.000000
Al  4.000000  4.000000  4.000000
Al  2.000000  2.000000  0.000000
Al  6.000000  2.000000  0.000000
Al  2.000000  6.000000  0.000000
Al  6.000000  6.000000  0.000000
Al  2.000000  2.000000  4.000000
Al  6.000000  2.000000  4.000000
Al  2.000000  6.000000  4.000000
Al  6.000000  6.000000  4.000000
Al  2.000000  0.000000  2.000000
Al  6.000000  0.000000  2.000000
Al  2.000000  4.000000  2.000000
Al  6.000000  4.000000  2.000000
Al  2.000000  0.000000  6.000000
Al  6.000000  0.000000  6.000000
Al  2.000000  4.000000  6.000000
Al  6.000000  4.000000  6.000000
Al  0.000000  2.000000  2.000000
Al  4.000000  2.000000  2.000000
Al  0.000000  6.000000  2.000000
Al  4.000000  6.000000  2.000000
Al  0.000000  2.000000  6.000000
Al  4.000000  2.000000  6.000000
Al  0.000000  6.000000  6.000000
Al  4.000000  6.000000  6.000000
%ENDBLOCK POSITIONS_ABS

KPOINTS_MP_SPACING: 0.04 
