#######################################################
#CASTEP cell file: /fs3/e89/e89/casv2/ship-testing-framework/example_run_dir/TiAl/run_dir/run_TiAl-model-CASTEP-test-phonon_TiAl/_CASTEP/castep.cell
#Created using the Atomic Simulation Environment (ASE)#
#######################################################

%BLOCK LATTICE_CART
 8.290105  0.000000  0.000000
 0.000000  8.290105  0.000000
 0.000000  0.000000 11.953213
%ENDBLOCK LATTICE_CART

%BLOCK POSITIONS_ABS
Ti  1.381684  1.381684  1.992202
Ti  4.145053  1.381684  1.992202
Ti  6.908421  1.381684  1.992202
Ti  1.381684  4.145053  1.992202
Ti  4.145053  4.145053  1.992202
Ti  6.908421  4.145053  1.992202
Ti  1.381684  6.908421  1.992202
Ti  4.145053  6.908421  1.992202
Ti  6.908421  6.908421  1.992202
Ti  1.381684  1.381684  5.976606
Ti  4.145053  1.381684  5.976606
Ti  6.908421  1.381684  5.976606
Ti  1.381684  4.145053  5.976606
Ti  4.145053  4.145053  5.976606
Ti  6.908421  4.145053  5.976606
Ti  1.381684  6.908421  5.976606
Ti  4.145053  6.908421  5.976606
Ti  6.908421  6.908421  5.976606
Ti  1.381684  1.381684  9.961010
Ti  4.145053  1.381684  9.961010
Ti  6.908421  1.381684  9.961010
Ti  1.381684  4.145053  9.961010
Ti  4.145053  4.145053  9.961010
Ti  6.908421  4.145053  9.961010
Ti  1.381684  6.908421  9.961010
Ti  4.145053  6.908421  9.961010
Ti  6.908421  6.908421  9.961010
Al  0.005699  0.000000  0.008217
Al  2.763368  0.000000  0.000000
Al  5.526737  0.000000  0.000000
Al  0.000000  2.763368  0.000000
Al  2.763368  2.763368  0.000000
Al  5.526737  2.763368  0.000000
Al  0.000000  5.526737  0.000000
Al  2.763368  5.526737  0.000000
Al  5.526737  5.526737  0.000000
Al  0.000000  0.000000  3.984404
Al  2.763368  0.000000  3.984404
Al  5.526737  0.000000  3.984404
Al  0.000000  2.763368  3.984404
Al  2.763368  2.763368  3.984404
Al  5.526737  2.763368  3.984404
Al  0.000000  5.526737  3.984404
Al  2.763368  5.526737  3.984404
Al  5.526737  5.526737  3.984404
Al  0.000000  0.000000  7.968808
Al  2.763368  0.000000  7.968808
Al  5.526737  0.000000  7.968808
Al  0.000000  2.763368  7.968808
Al  2.763368  2.763368  7.968808
Al  5.526737  2.763368  7.968808
Al  0.000000  5.526737  7.968808
Al  2.763368  5.526737  7.968808
Al  5.526737  5.526737  7.968808
%ENDBLOCK POSITIONS_ABS

%BLOCK SPECIES_POT
Al 3|2.2|2.2|1.4|4|5|5|30:31:32U2U2
Ti 3|1.8|9|10|11|30U:40:31:32(qc=5.5)
%ENDBLOCK SPECIES_POT

KPOINTS_MP_SPACING: 0.04 
