#######################################################
#CASTEP cell file: ./_CASTEP/castep.cell
#Created using the Atomic Simulation Environment (ASE)#
#######################################################

%BLOCK LATTICE_CART
 3.229045  0.000000  0.000000
 0.000000  3.165731  0.031657
 0.000000  0.031657  3.165731
%ENDBLOCK LATTICE_CART

%BLOCK POSITIONS_ABS
Ti  0.000000  0.000000  0.000000
Ti  1.614523  1.598694  1.598694
%ENDBLOCK POSITIONS_ABS

%BLOCK SPECIES_POT
Ti 3|1.8|9|10|11|30U:40:31:32(qc=5.5)
%ENDBLOCK SPECIES_POT

KPOINTS_MP_SPACING: 0.02 
