#######################################################
#CASTEP cell file: /fs3/e89/e89/casv2/ship-testing-framework/example_run_dir/TiAl/run_dir/run_TiAl-model-CASTEP-test-phonon_TiAl3/_CASTEP/castep.cell
#Created using the Atomic Simulation Environment (ASE)#
#######################################################

%BLOCK LATTICE_CART
10.175775  0.000000  0.000000
 4.367440  9.190857  0.000000
-7.271607 -4.595429  5.436189
%ENDBLOCK LATTICE_CART

%BLOCK POSITIONS_ABS
Ti  0.000000  0.000000  0.000000
Ti  5.087887  0.000000  0.000000
Ti  2.183720  4.595429  0.000000
Ti  7.271607  4.595429  0.000000
Ti -3.635804 -2.297714  2.718095
Ti  1.452084 -2.297714  2.718095
Ti -1.452084  2.297714  2.718095
Ti  3.635804  2.297714  2.718095
Al  3.635804  2.297714  0.000000
Al  8.723691  2.297714  0.000000
Al  5.819523  6.893143  0.000000
Al 10.907411  6.893143  0.000000
Al -0.000000  0.000000  2.718095
Al  5.087887  0.000000  2.718095
Al  2.183720  4.595429  2.718095
Al  7.271607  4.595429  2.718095
Al  2.553944  0.000000  1.359047
Al  7.631831  0.000000  1.359047
Al  4.727663  4.595429  1.359047
Al  9.815551  4.595429  1.359047
Al -1.091860 -2.297714  4.077142
Al  3.996027 -2.297714  4.077142
Al  1.091860  2.297714  4.077142
Al  6.179747  2.297714  4.077142
Al  1.091860  2.297714  1.359047
Al  6.179747  2.297714  1.359047
Al  3.275580  6.893143  1.359047
Al  8.363467  6.893143  1.359047
Al -2.543944  0.000000  4.077142
Al  2.543944  0.000000  4.077142
Al -0.360224  4.595429  4.077142
Al  4.727663  4.595429  4.077142
%ENDBLOCK POSITIONS_ABS

%BLOCK SPECIES_POT
Al 3|2.2|2.2|1.4|4|5|5|30:31:32U2U2
Ti 3|1.8|9|10|11|30U:40:31:32(qc=5.5)
%ENDBLOCK SPECIES_POT

KPOINTS_MP_SPACING: 0.04 
