#######################################################
#CASTEP cell file: /fs3/e89/e89/casv2/ship-testing-framework/example_run_dir/TiAl/run_dir/run_TiAl-model-CASTEP-test-phonon_TiAl3/_CASTEP/castep.cell
#Created using the Atomic Simulation Environment (ASE)#
#######################################################

%BLOCK LATTICE_CART
10.005882  0.007999  0.002221
 4.301747  9.033974  0.002221
-7.152628 -4.520237  5.333606
%ENDBLOCK LATTICE_CART

%BLOCK POSITIONS_ABS
Ti  7.154976  4.521736  5.338049
Ti  2.152035  4.517737  5.336938
Ti  5.004103  0.004749  5.336938
Ti  0.001162  0.000750  5.335827
Ti 10.731290  6.781855  2.671245
Ti  5.728349  6.777855  2.670135
Ti  8.580416  2.264868  2.670135
Ti  3.577475  2.260868  2.669024
Al -3.575745 -2.259744  5.334717
Al  1.427195 -2.255744  5.335828
Al -1.424872  2.257243  5.335827
Al  3.578069  2.261243  5.336938
Al  0.000568  0.000375  2.667914
Al  5.003509  0.004374  2.669024
Al  2.151442  4.517362  2.669024
Al  7.154383  4.521362  2.670135
Al  2.494625 -0.002386  1.339845
Al  7.504717  0.006133  1.335623
Al  4.652650  4.519120  1.335623
Al  9.655591  4.523120  1.336733
Al -1.074537 -2.257986  4.001315
Al  3.928403 -2.253986  4.002426
Al  1.076336  2.259002  4.002426
Al  6.079277  2.263001  4.003536
Al  1.075674  2.258735  1.334512
Al  6.078615  2.262735  1.335623
Al  3.226547  6.775722  1.335622
Al  8.229488  6.779722  1.336733
Al -2.500640 -0.001383  4.001315
Al  2.502301  0.002616  4.002426
Al -0.349766  4.515604  4.002426
Al  4.653175  4.519603  4.003536
%ENDBLOCK POSITIONS_ABS

%BLOCK SPECIES_POT
Al 3|2.2|2.2|1.4|4|5|5|30:31:32U2U2
Ti 3|1.8|9|10|11|30U:40:31:32(qc=5.5)
%ENDBLOCK SPECIES_POT

KPOINTS_MP_SPACING: 0.04 
