#######################################################
#CASTEP cell file: /fs3/e89/e89/casv2/ship-testing-framework/example_run_dir/TiAl/run_dir/run_TiAl-model-CASTEP-test-TiAl_trans/_CASTEP/castep.cell
#Created using the Atomic Simulation Environment (ASE)#
#######################################################

%BLOCK LATTICE_CART
 3.294569  0.000000  0.000000
 1.574872  2.372031  0.000000
 0.000000  0.000000  4.662857
%ENDBLOCK LATTICE_CART

%BLOCK POSITIONS_ABS
Ti  0.072413  0.072413  0.104223
Al  1.574872  0.000000  2.227205
%ENDBLOCK POSITIONS_ABS

%BLOCK SPECIES_POT
Al 3|2.2|2.2|1.4|4|5|5|30:31:32U2U2
Ti 3|1.8|9|10|11|30U:40:31:32(qc=5.5)
%ENDBLOCK SPECIES_POT

KPOINTS_MP_SPACING: 0.04 
