#######################################################
#CASTEP cell file: /fs3/e89/e89/casv2/ship-testing-framework/example_run_dir/TiAl/run_dir/run_TiAl-model-CASTEP-test-phonon_TiAl/_CASTEP/castep.cell
#Created using the Atomic Simulation Environment (ASE)#
#######################################################

%BLOCK LATTICE_CART
 8.472316  0.000000  0.000000
 0.000000  8.472316  0.000000
 0.000000  0.000000 12.194136
%ENDBLOCK LATTICE_CART

%BLOCK POSITIONS_ABS
Ti  1.412053  1.412053  2.032356
Ti  4.236158  1.412053  2.032356
Ti  7.060263  1.412053  2.032356
Ti  1.412053  4.236158  2.032356
Ti  4.236158  4.236158  2.032356
Ti  7.060263  4.236158  2.032356
Ti  1.412053  7.060263  2.032356
Ti  4.236158  7.060263  2.032356
Ti  7.060263  7.060263  2.032356
Ti  1.412053  1.412053  6.097068
Ti  4.236158  1.412053  6.097068
Ti  7.060263  1.412053  6.097068
Ti  1.412053  4.236158  6.097068
Ti  4.236158  4.236158  6.097068
Ti  7.060263  4.236158  6.097068
Ti  1.412053  7.060263  6.097068
Ti  4.236158  7.060263  6.097068
Ti  7.060263  7.060263  6.097068
Ti  1.412053  1.412053 10.161780
Ti  4.236158  1.412053 10.161780
Ti  7.060263  1.412053 10.161780
Ti  1.412053  4.236158 10.161780
Ti  4.236158  4.236158 10.161780
Ti  7.060263  4.236158 10.161780
Ti  1.412053  7.060263 10.161780
Ti  4.236158  7.060263 10.161780
Ti  7.060263  7.060263 10.161780
Al  0.005706  0.000000  0.008212
Al  2.824105  0.000000  0.000000
Al  5.648210  0.000000  0.000000
Al  0.000000  2.824105  0.000000
Al  2.824105  2.824105  0.000000
Al  5.648210  2.824105  0.000000
Al  0.000000  5.648210  0.000000
Al  2.824105  5.648210  0.000000
Al  5.648210  5.648210  0.000000
Al  0.000000  0.000000  4.064712
Al  2.824105  0.000000  4.064712
Al  5.648210  0.000000  4.064712
Al  0.000000  2.824105  4.064712
Al  2.824105  2.824105  4.064712
Al  5.648210  2.824105  4.064712
Al  0.000000  5.648210  4.064712
Al  2.824105  5.648210  4.064712
Al  5.648210  5.648210  4.064712
Al  0.000000  0.000000  8.129424
Al  2.824105  0.000000  8.129424
Al  5.648210  0.000000  8.129424
Al  0.000000  2.824105  8.129424
Al  2.824105  2.824105  8.129424
Al  5.648210  2.824105  8.129424
Al  0.000000  5.648210  8.129424
Al  2.824105  5.648210  8.129424
Al  5.648210  5.648210  8.129424
%ENDBLOCK POSITIONS_ABS

%BLOCK SPECIES_POT
Al 3|2.2|2.2|1.4|4|5|5|30:31:32U2U2
Ti 3|1.8|9|10|11|30U:40:31:32(qc=5.5)
%ENDBLOCK SPECIES_POT

KPOINTS_MP_SPACING: 0.04 
